NAME : expansion
TYPE : TSP
DIMENSION : 50
EDGE_WEIGHT_TYPE : EUC_2D
NODE_COORD_SECTION
1 855343 967753
2 749248 791772
3 794936 579494
4 806718 354684
5 893684 392778
6 838567 110567
7 681591 341711
8 693132 222460
9 891550 968571
10 549450 368707
11 670613 272323
12 868838 394345
13 819617 376146
14 858128 288332
15 710539 365100
16 588754 268841
17 698499 308666
18 803558 956471
19 734555 302136
20 886901 662089
21 616262 289460
22 865335 789057
23 740568 256138
24 931941 391364
25 855662 455705
26 964743 353572
27 723938 353612
28 592654 255134
29 795682 375834
30 672390 570486
31 847207 47103
32 601204 326729
33 702070 461348
34 827766 852707
35 983967 368061
36 761586 662588
37 769005 902742
38 224042 961828
39 654050 280301
40 837977 342597
41 673255 200267
42 766815 802498
43 963484 414040
44 731454 370673
45 792844 87768
46 730720 772531
47 637006 210236
48 726547 128133
49 648640 211988
50 525191 361340
EOF
